20
    1   717   781
    2   857   942
    3   937   856
    4   931   925
    5   762   714
    6   711   763
    7   115    75
    8   582   541
    9   856   819
   10   845   812
   11   894   825
   12   248   237
   13   909   810
   14   865   886
   15   341   306
   16   920   846
   17   771   707
   18   659   618
   19   692   679
   20   223   208
6675